100 8
936 265
211 164
686 552
386 168
205 701
460 49
333 88
716 686
578 103
523 221
707 239
556 539
595 76
501 518
371 715
366 850
529 105
549 799
519 211
186 79
684 285
399 239
310 744
923 306
238 524
426 183
496 387
663 106
523 464
792 277
307 710
595 642
447 768
641 69
862 319
133 705
214 122
208 339
928 651
841 129
626 387
213 494
727 267
834 389
317 779
956 384
178 164
174 624
266 746
567 778
518 492
622 162
894 106
169 718
275 736
477 498
536 133
891 242
262 45
456 209
534 513
427 158
508 206
776 214
118 29
185 536
328 824
166 360
556 193
318 502
714 636
187 422
609 96
578 479
838 193
321 635
198 340
527 148
905 806
824 126
798 662
446 144
618 366
665 630
571 641
231 104
344 815
816 679
625 636
460 70
404 15
887 694
913 419
470 201
298 462
715 208
361 786
629 363
618 613
511 313
